proyfinal/src/viki/013/andrea/andrea-localstore/experimentInOfficeAgust.take6/worker_9/41955ff0-8343-4a0e-a061-d27d6a87bfa0.als.cnf.out
Reading from standard input... Use '--help' for help.
============================[ Problem Statistics ]=============================
|                                                                             |
|  Number of variables:         87638                                         |
|  Number of clauses:          161767                                         |
|  Parse time:                   0.04 s                                       |
|                                                                             |
============================[ Search Statistics ]==============================
| Conflicts |          ORIGINAL         |          LEARNT          | Progress |
|           |    Vars  Clauses Literals |    Limit  Clauses Lit/Cl |          |
===============================================================================
|       100 |   63333   108522   271326 |    39791      100     24 | 27.733 % |
|       250 |   63294   108446   271147 |    43770      248     62 | 27.778 % |
|       475 |   63293   108362   270954 |    48147      472     79 | 27.779 % |
|       812 |   63293   108318   270864 |    52962      809     71 | 27.779 % |
|      1318 |   63293   108318   270864 |    58258     1315     81 | 27.779 % |
|      2077 |   50587   108242   270688 |    64084     1998     79 | 42.277 % |
|      3216 |   50125    69629   175274 |    70492     3052     70 | 42.804 % |
|      4924 |   49820    68574   172594 |    77542     3719     67 | 43.153 % |
|      7486 |   49310    66525   167750 |    85296     5805     59 | 43.734 % |
|     11330 |   48998    65367   164994 |    93826     9094     55 | 44.090 % |
===============================================================================
restarts              : 62
conflicts             : 14482          (8069 /sec)
decisions             : 48816          (0.00 % random) (27199 /sec)
propagations          : 19889604       (11081911 /sec)
conflict literals     : 711786         (47.28 % deleted)
Memory used           : 32.55 MB
CPU time              : 1.79478 s

UNSATISFIABLE
